#n PM6 Opt Freq

test sugar 

0  1
C          -0.96290         0.86830        -0.46530
C           0.41370         0.60930        -1.11710
C           0.75930        -0.90030        -1.06050
O           2.18780        -1.03530        -1.12830
C           0.15290        -1.52910         0.21060
O           0.53650        -0.82270         1.40750
C          -1.38930        -1.45100         0.05820
C          -2.13060        -1.55020         1.40060
O          -3.51110        -1.84110         1.14850
O          -1.81830        -0.26800        -0.66200
N           0.38710         1.01610        -2.54460
C          -1.67890         2.10460        -1.00870
H          -1.71280        -2.28250        -0.58040
H          -0.85510         1.03800         0.61260
H           1.17090         1.20980        -0.59460
H           0.32960        -1.39860        -1.94180
H           0.44200        -2.57890         0.33260
H          -2.06590        -0.60370         1.94900
H          -1.71140        -2.35980         2.00850
C           1.87730        -1.05630         1.82230
C           2.61070        -2.30410        -1.61280
C          -4.27140        -1.86080         2.34910
N           1.49560         1.25490        -3.06420
N           2.50450         1.47320        -3.54620
H           3.70380        -2.31560        -1.62900
H           2.24750        -2.46400        -2.63240
H           2.26590        -3.10860        -0.95820
H           1.97040        -0.72180         2.85940
H           2.12990        -2.11970         1.77890
H           2.57400        -0.46750         1.22210
H          -3.89070        -2.62710         3.03110
H          -4.24820        -0.87970         2.83310
H          -5.30770        -2.10080         2.09660
N          -2.81180         1.98590        -1.65190
C          -1.01350         3.43860        -0.71350
F          -1.72380         4.51950        -1.13030
F          -0.81820         3.60070         0.62630
F           0.22040         3.54490        -1.27900
H          -3.04010         0.97480        -1.68300

1 2 1.0 10 1.0 14 1.0 12 1.0 
2 3 1.0 15 1.0 11 1.0 
3 5 1.0 4 1.0 16 1.0 
4 21 1.0 
5 6 1.0 7 1.0 17 1.0 
6 20 1.0 
7 13 1.0 8 1.0 10 1.0 
8 19 1.0 18 1.0 9 1.0 
9 22 1.0 
10 
11 23 2.0 
12 35 1.0 34 2.0 
13 
14 
15 
16 
17 
18 
19 
20 28 1.0 29 1.0 30 1.0 
21 25 1.0 26 1.0 27 1.0 
22 31 1.0 32 1.0 33 1.0 
23 24 2.0 
24 
25 
26 
27 
28 
29 
30 
31 
32 
33 
34 39 1.0 
35 36 1.0 37 1.0 38 1.0 
36 
37 
38 
39 
