#n PM6 Opt Freq

test sugar 

0  1
C          -0.91080         0.96240        -0.40270
C           0.43560         0.83510        -1.13200
C           1.21230        -0.39010        -0.60860
O           1.61520        -0.05510         0.73480
C           0.33040        -1.66190        -0.62760
O           1.06420        -2.77140        -0.09560
C          -1.02780        -1.41520         0.06870
C          -0.96150        -1.39090         1.61290
O          -2.23090        -1.68520         2.21700
O          -1.67240        -0.25110        -0.49630
N           0.34580         0.83300        -2.61380
C          -1.76920         2.10600        -0.94440
H          -1.69220        -2.24680        -0.19540
H          -0.74840         1.19220         0.65590
H           1.02390         1.72850        -0.88340
H           2.10670        -0.55140        -1.22480
H           0.13220        -1.88390        -1.68280
H          -0.59500        -0.44420         2.01770
H          -0.28730        -2.17630         1.96780
C           0.48560        -4.03800        -0.38800
C           2.89600        -0.56990         1.08340
C          -3.17780        -0.63080         2.11930
N          -0.53350         0.16140        -3.18570
N          -1.32300        -0.46710        -3.71340
H           3.66440        -0.15290         0.42540
H           3.11690        -0.26110         2.10880
H           2.91650        -1.66060         1.04230
H           1.16710        -4.81350        -0.02780
H          -0.47060        -4.15870         0.12750
H           0.35500        -4.16470        -1.46680
H          -4.01040        -0.86010         2.79030
H          -3.57640        -0.56310         1.10440
H          -2.74010         0.32410         2.42520
N          -2.93240         1.85430        -1.48520
C          -1.18300         3.50470        -0.82500
F          -2.11410         4.49290        -0.86370
F          -0.28710         3.76900        -1.81250
F          -0.50860         3.65900         0.34830
H          -3.09690         0.83290        -1.43190

1 2 1.0 10 1.0 14 1.0 12 1.0 
2 3 1.0 15 1.0 11 1.0 
3 5 1.0 4 1.0 16 1.0 
4 21 1.0 
5 6 1.0 7 1.0 17 1.0 
6 20 1.0 
7 13 1.0 8 1.0 10 1.0 
8 19 1.0 18 1.0 9 1.0 
9 22 1.0 
10 
11 23 2.0 
12 35 1.0 34 2.0 
13 
14 
15 
16 
17 
18 
19 
20 28 1.0 29 1.0 30 1.0 
21 25 1.0 26 1.0 27 1.0 
22 31 1.0 32 1.0 33 1.0 
23 24 2.0 
24 
25 
26 
27 
28 
29 
30 
31 
32 
33 
34 39 1.0 
35 36 1.0 37 1.0 38 1.0 
36 
37 
38 
39 
