#n PM6 Opt Freq

test sugar 

0  1
C          -1.06430         0.77870        -0.55330
C           0.39660         0.59630        -1.02340
C           0.75080        -0.91070        -1.09720
O           2.17870        -1.04310        -1.01110
C          -0.00350        -1.67720         0.01080
O           0.24900        -1.12880         1.31290
C          -1.51820        -1.57080        -0.33430
C          -2.48950        -1.84380         0.82840
O          -2.51650        -0.76740         1.76660
O          -1.86180        -0.33350        -1.00100
N           0.57280         1.17130        -2.38160
C          -1.71820         2.06290        -1.06000
H          -1.71450        -2.34260        -1.09030
H          -1.10530         0.83500         0.53960
H           1.06210         1.12540        -0.32760
H           0.43590        -1.30200        -2.07580
H           0.27100        -2.73790         0.03580
H          -3.50080        -1.95300         0.41850
H          -2.21230        -2.77520         1.33550
C           1.52380        -1.44060         1.85620
C           2.66700        -2.25870        -1.56400
C          -3.40010        -1.02860         2.84750
N           1.73930         1.48640        -2.69070
N           2.80130         1.77650        -2.98380
H           3.75520        -2.26840        -1.45810
H           2.26050        -3.12290        -1.03240
H           2.42230        -2.32000        -2.62860
H           1.49230        -1.23020         2.92900
H           2.29610        -0.80460         1.41870
H           1.76960        -2.49780         1.72000
H          -3.37830        -0.17090         3.52510
H          -4.42340        -1.16040         2.48310
H          -3.07850        -1.91750         3.39860
N          -2.71930         2.01020        -1.90230
C          -1.15600         3.35850        -0.50000
F          -1.75300         4.47820        -0.98910
F          -1.28800         3.41360         0.85490
F           0.17670         3.49680        -0.74630
H          -2.90130         1.00810        -2.08780

1 2 1.0 10 1.0 14 1.0 12 1.0 
2 3 1.0 15 1.0 11 1.0 
3 5 1.0 4 1.0 16 1.0 
4 21 1.0 
5 6 1.0 7 1.0 17 1.0 
6 20 1.0 
7 13 1.0 8 1.0 10 1.0 
8 19 1.0 18 1.0 9 1.0 
9 22 1.0 
10 
11 23 2.0 
12 35 1.0 34 2.0 
13 
14 
15 
16 
17 
18 
19 
20 28 1.0 29 1.0 30 1.0 
21 25 1.0 26 1.0 27 1.0 
22 31 1.0 32 1.0 33 1.0 
23 24 2.0 
24 
25 
26 
27 
28 
29 
30 
31 
32 
33 
34 39 1.0 
35 36 1.0 37 1.0 38 1.0 
36 
37 
38 
39 
