#n PM6 Opt Freq

test sugar 

0  1
C          -0.74560         1.00290        -0.59760
C           0.61510         0.48920        -1.11790
C           0.79450        -1.03450        -0.85690
O           2.15430        -1.37450        -0.53790
C          -0.12670        -1.48750         0.29490
O           0.17460        -0.73290         1.48710
C          -1.58980        -1.20750        -0.14160
C          -2.58600        -1.25890         1.02290
O          -2.54280        -2.54620         1.63880
O          -1.76100         0.02830        -0.87380
N           0.79590         0.78500        -2.56990
C          -1.16090         2.33820        -1.21460
H          -1.86740        -1.99690        -0.85210
H          -0.72210         1.18360         0.48290
H           1.40870         1.04520        -0.60340
H           0.51460        -1.62630        -1.73780
H          -0.00220        -2.55870         0.49870
H          -2.36560        -0.47510         1.75760
H          -3.59780        -1.06870         0.64350
C           1.01130        -1.44430         2.39270
C           3.05730        -1.23100        -1.62680
C          -3.42840        -2.62200         2.74890
N           0.00450         0.26480        -3.38220
N          -0.70950        -0.22910        -4.11900
H           3.22190        -0.17560        -1.85780
H           4.01650        -1.66460        -1.33040
H           2.69420        -1.76520        -2.50980
H           1.20280        -0.80020         3.25510
H           0.50600        -2.34920         2.74390
H           1.96890        -1.70100         1.93420
H          -4.45990        -2.44630         2.42890
H          -3.14200        -1.89680         3.51660
H          -3.36050        -3.62650         3.17490
N          -2.23890         2.41390        -1.95150
C          -0.24840         3.52320        -0.93440
F           0.39260         3.38980         0.26050
F          -0.91060         4.70920        -0.87730
F           0.72520         3.66280        -1.87230
H          -2.67460         1.47500        -1.97440

1 2 1.0 10 1.0 14 1.0 12 1.0 
2 3 1.0 15 1.0 11 1.0 
3 5 1.0 4 1.0 16 1.0 
4 21 1.0 
5 6 1.0 7 1.0 17 1.0 
6 20 1.0 
7 13 1.0 8 1.0 10 1.0 
8 19 1.0 18 1.0 9 1.0 
9 22 1.0 
10 
11 23 2.0 
12 35 1.0 34 2.0 
13 
14 
15 
16 
17 
18 
19 
20 28 1.0 29 1.0 30 1.0 
21 25 1.0 26 1.0 27 1.0 
22 31 1.0 32 1.0 33 1.0 
23 24 2.0 
24 
25 
26 
27 
28 
29 
30 
31 
32 
33 
34 39 1.0 
35 36 1.0 37 1.0 38 1.0 
36 
37 
38 
39 
