#n PM6 Opt Freq

test sugar 

0  1
C          -0.87450         0.81080        -0.21240
C           0.47850         0.61110        -0.92680
C           0.91700        -0.87920        -0.88110
O           2.34790        -0.93650        -0.96640
C           0.35690        -1.54090         0.39700
O           0.71770        -0.82080         1.59150
C          -1.19330        -1.53690         0.26490
C          -1.90260        -1.71750         1.62000
O          -3.22660        -2.25030         1.48260
O          -1.69010        -0.35380        -0.41540
N           0.45110         1.11110        -2.33040
C          -1.64730         2.03690        -0.69350
H          -1.48270        -2.36600        -0.39260
H          -0.73780         0.95570         0.86560
H           1.22980         1.22840        -0.41830
H           0.51000        -1.41890        -1.74550
H           0.69810        -2.57600         0.51070
H          -1.94740        -0.78130         2.18790
H          -1.35570        -2.45140         2.22160
C           2.07370        -0.98540         1.98990
C           2.83900        -2.18380        -1.44110
C          -4.17650        -1.31260         0.99410
N          -0.25710         0.50910        -3.16090
N          -0.89890        -0.05770        -3.91180
H           3.93050        -2.13090        -1.47260
H           2.47220        -2.37870        -2.45330
H           2.55180        -2.99880        -0.77180
H           2.38040        -2.03420         1.94030
H           2.73180        -0.35980         1.38330
H           2.16150        -0.64900         3.02690
H          -4.11260        -0.36360         1.53480
H          -4.04270        -1.15380        -0.07860
H          -5.17500        -1.73150         1.14740
N          -2.80380         1.89110        -1.28740
C          -0.99280         3.38910        -0.45190
F          -0.42770         3.90590        -1.57400
F           0.00040         3.31190         0.47790
F          -1.86800         4.32100         0.01260
H          -3.01700         0.87890        -1.32070

1 2 1.0 10 1.0 14 1.0 12 1.0 
2 3 1.0 15 1.0 11 1.0 
3 5 1.0 4 1.0 16 1.0 
4 21 1.0 
5 6 1.0 7 1.0 17 1.0 
6 20 1.0 
7 13 1.0 8 1.0 10 1.0 
8 19 1.0 18 1.0 9 1.0 
9 22 1.0 
10 
11 23 2.0 
12 35 1.0 34 2.0 
13 
14 
15 
16 
17 
18 
19 
20 28 1.0 29 1.0 30 1.0 
21 25 1.0 26 1.0 27 1.0 
22 31 1.0 32 1.0 33 1.0 
23 24 2.0 
24 
25 
26 
27 
28 
29 
30 
31 
32 
33 
34 39 1.0 
35 36 1.0 37 1.0 38 1.0 
36 
37 
38 
39 
