#n PM6 Opt Freq

test sugar 

0  1
C          -0.84050         0.99470        -0.57850
C           0.41430         0.33990        -1.21330
C           0.56390        -1.13540        -0.74070
O           1.94000        -1.51080        -0.55460
C          -0.18360        -1.35830         0.58910
O           0.33380        -0.45180         1.58450
C          -1.68400        -1.06710         0.33810
C          -2.49100        -0.88690         1.63280
O          -2.40800        -2.02950         2.48640
O          -1.92310         0.05200        -0.54140
N           0.25180         0.30770        -2.69150
C          -1.32600         2.23140        -1.33360
H          -2.09020        -1.93130        -0.20090
H          -0.64010         1.33810         0.44250
H           1.30610         0.92060        -0.94420
H           0.12550        -1.82190        -1.47880
H          -0.06440        -2.39300         0.93570
H          -3.53770        -0.64570         1.40710
H          -2.10960        -0.02610         2.19350
C           1.21060        -1.09040         2.50610
C           2.65720        -1.73100        -1.75960
C          -3.36320        -3.03210         2.16460
N           1.10420         0.91050        -3.37040
N           1.88810         1.45240        -3.99330
H           2.89830        -0.78070        -2.23870
H           2.09990        -2.37820        -2.44300
H           3.59950        -2.22550        -1.50720
H           1.57680        -0.33530         3.20670
H           2.06840        -1.53400         1.99450
H           0.67190        -1.85580         3.07300
H          -4.37950        -2.63990         2.26770
H          -3.23880        -3.86050         2.86730
H          -3.20610        -3.41200         1.15160
N          -2.41750         2.18710        -2.05280
C          -0.47410         3.47870        -1.17250
F          -0.90950         4.54590        -1.89040
F          -0.41800         3.87840         0.12730
F           0.81470         3.25760        -1.55140
H          -2.80190         1.22950        -1.96890

1 2 1.0 10 1.0 14 1.0 12 1.0 
2 3 1.0 15 1.0 11 1.0 
3 5 1.0 4 1.0 16 1.0 
4 21 1.0 
5 6 1.0 7 1.0 17 1.0 
6 20 1.0 
7 13 1.0 8 1.0 10 1.0 
8 19 1.0 18 1.0 9 1.0 
9 22 1.0 
10 
11 23 2.0 
12 35 1.0 34 2.0 
13 
14 
15 
16 
17 
18 
19 
20 28 1.0 29 1.0 30 1.0 
21 25 1.0 26 1.0 27 1.0 
22 31 1.0 32 1.0 33 1.0 
23 24 2.0 
24 
25 
26 
27 
28 
29 
30 
31 
32 
33 
34 39 1.0 
35 36 1.0 37 1.0 38 1.0 
36 
37 
38 
39 
