#n PM6 Opt Freq

test sugar 

0  1
C          -0.96850         0.86640        -0.46300
C           0.41910         0.62530        -1.09810
C           0.77740        -0.88170        -1.04980
O           2.20790        -1.00350        -1.09930
C           0.15960        -1.52680         0.20760
O           0.52060        -0.82740         1.41560
C          -1.38100        -1.46100         0.03500
C          -2.13950        -1.57830         1.36630
O          -3.51380        -1.87920         1.09300
O          -1.81090        -0.27570        -0.68090
N           0.40830         1.04430        -2.52230
C          -1.68800         2.10100        -1.00560
H          -1.68850        -2.28980        -0.61500
H          -0.87680         1.02780         0.61780
H           1.16380         1.22780        -0.56010
H           0.36410        -1.37610        -1.94110
H           0.45640        -2.57500         0.32450
H          -1.72130        -2.38940         1.97290
H          -2.09070        -0.63610         1.92350
C           1.85760        -1.05290         1.84660
C           2.64860        -2.26420        -1.58880
C          -4.29010        -1.91610         2.28300
N           1.52160         1.29740        -3.02450
N           2.53500         1.52890        -3.49070
H           2.30220        -3.07750        -0.94580
H           3.74190        -2.26600        -1.59010
H           2.30080        -2.41840        -2.61460
H           2.55730        -0.45300         1.26090
H           2.12010        -2.11370         1.79780
H           1.93380        -0.72640         2.88770
H          -5.32060        -2.16300         2.01440
H          -3.91180        -2.68500         2.96350
H          -4.28210        -0.93910         2.77570
N          -2.81100         1.97770        -1.66520
C          -1.03890         3.43820        -0.68980
F           0.20220         3.55990        -1.23630
F          -0.86440         3.59090         0.65400
F          -1.75250         4.51640        -1.10820
H          -3.02970         0.96500        -1.70810

1 2 1.0 10 1.0 14 1.0 12 1.0 
2 3 1.0 15 1.0 11 1.0 
3 5 1.0 4 1.0 16 1.0 
4 21 1.0 
5 6 1.0 7 1.0 17 1.0 
6 20 1.0 
7 13 1.0 8 1.0 10 1.0 
8 19 1.0 18 1.0 9 1.0 
9 22 1.0 
10 
11 23 2.0 
12 35 1.0 34 2.0 
13 
14 
15 
16 
17 
18 
19 
20 28 1.0 29 1.0 30 1.0 
21 25 1.0 26 1.0 27 1.0 
22 31 1.0 32 1.0 33 1.0 
23 24 2.0 
24 
25 
26 
27 
28 
29 
30 
31 
32 
33 
34 39 1.0 
35 36 1.0 37 1.0 38 1.0 
36 
37 
38 
39 
