#n PM6 Opt Freq

test sugar 

0  1
C          -0.98890         1.09340        -0.63940
C           0.40540         0.71900        -1.19180
C           0.64790        -0.80870        -1.08480
O           2.06690        -1.02050        -1.00480
C          -0.11700        -1.37580         0.12610
O           0.23450        -0.64210         1.31720
C          -1.62760        -1.18540        -0.17420
C          -2.51440        -1.30030         1.07080
O          -2.33750        -2.58470         1.67050
O          -1.92910         0.03480        -0.88600
N           0.50070         1.09540        -2.62530
C          -1.55530         2.38010        -1.24040
H          -1.91790        -1.99000        -0.86250
H          -0.94740         1.26710         0.44250
H           1.16620         1.27970        -0.63120
H           0.28080        -1.29690        -1.99920
H           0.08690        -2.44100         0.28360
H          -2.28090        -0.50650         1.79040
H          -3.56490        -1.17330         0.78120
C           1.27820        -1.25450         2.06480
C           2.46310        -2.32910        -1.39650
C          -3.11900        -2.71840         2.85110
N           1.65580         1.24450        -3.07250
N           2.70620         1.38160        -3.49140
H           3.55140        -2.39440        -1.31450
H           2.02180        -3.08540        -0.74230
H           2.18230        -2.51840        -2.43690
H           2.20530        -1.29970         1.48990
H           1.45720        -0.64780         2.95660
H           0.98100        -2.25780         2.38500
H          -2.81440        -1.97800         3.59710
H          -2.95220        -3.71740         3.26250
H          -4.18300        -2.60760         2.62110
N          -2.63480         2.34710        -1.97930
C          -0.81140         3.65890        -0.89120
F           0.46660         3.66410        -1.35950
F          -0.71110         3.81290         0.45950
F          -1.40060         4.78920        -1.36240
H          -2.93260         1.35750        -2.04130

1 2 1.0 10 1.0 14 1.0 12 1.0 
2 3 1.0 15 1.0 11 1.0 
3 5 1.0 4 1.0 16 1.0 
4 21 1.0 
5 6 1.0 7 1.0 17 1.0 
6 20 1.0 
7 13 1.0 8 1.0 10 1.0 
8 19 1.0 18 1.0 9 1.0 
9 22 1.0 
10 
11 23 2.0 
12 35 1.0 34 2.0 
13 
14 
15 
16 
17 
18 
19 
20 28 1.0 29 1.0 30 1.0 
21 25 1.0 26 1.0 27 1.0 
22 31 1.0 32 1.0 33 1.0 
23 24 2.0 
24 
25 
26 
27 
28 
29 
30 
31 
32 
33 
34 39 1.0 
35 36 1.0 37 1.0 38 1.0 
36 
37 
38 
39 
